min: 1.0Emax;
1.0Emax >= 1.0E_0;
1.0Emax >= 1.0E_7;
1.0Emax >= 1.0E_8;
1.0Emax >= 1.0E_9;
1.0Emax >= 1.0E_10;
1.0Emax >= 1.0E_11;
1.0Emax >= 1.0E_12;
1.0Emax >= 1.0E_13;
1.0E_0 >= 1.0E_0_chef;
1.0E_7 >= 1.0E_7_chef;
1.0E_8 >= 1.0E_8_chef;
1.0E_9 >= 1.0E_9_kettle;
1.0E_10 >= 1.0E_10_chef;
1.0E_11 >= 1.0E_11_worktop;
1.0E_12 >= 1.0E_12_chef;
1.0E_13 >= 1.0E_13_chef;
1.0E_9_kettle >= 1.0E_8_chef + 120.0X_9_kettle;
1.0E_10_chef >= 1.0E_7_chef + 7.0X_10_chef;
1.0E_10_chef >= 1.0E_9_kettle + 7.0X_10_chef;
1.0E_11_worktop >= 1.0E_10_chef + 300.0X_11_worktop;
1.0E_12_chef >= 1.0E_11_worktop + 5.0X_12_chef;
1.0E_13_chef >= 1.0E_0_chef + 7.0X_13_chef;
1.0E_13_chef >= 1.0E_12_chef + 7.0X_13_chef;
1.0E_0 >= 10.0X_0_chef;
1.0E_7 >= 10.0X_7_chef;
1.0E_8 >= 10.0X_8_chef;
1.0E_9 >= 120.0X_9_kettle;
1.0E_10 >= 7.0X_10_chef;
1.0E_11 >= 300.0X_11_worktop;
1.0E_12 >= 5.0X_12_chef;
1.0E_13 >= 7.0X_13_chef;
1.0X_0_chef = 1.0;
1.0X_7_chef = 1.0;
1.0X_8_chef = 1.0;
1.0X_9_kettle = 1.0;
1.0X_10_chef = 1.0;
1.0X_11_worktop = 1.0;
1.0X_12_chef = 1.0;
1.0X_13_chef = 1.0;
1.0E_0_chef - 1.0E_0_chef >= 10.0 - 9999999.0Y_0_chef0;
1.0E_0_chef - 1.0E_7_chef >= 10.0 - 9999999.0Y_0_chef7;
1.0E_0_chef - 1.0E_8_chef >= 10.0 - 9999999.0Y_0_chef8;
1.0E_0_chef - 1.0E_10_chef >= 10.0 - 9999999.0Y_0_chef10;
1.0E_0_chef - 1.0E_12_chef >= 10.0 - 9999999.0Y_0_chef12;
1.0E_0_chef - 1.0E_13_chef >= 10.0 - 9999999.0Y_0_chef13;
1.0E_7_chef - 1.0E_0_chef >= 10.0 - 9999999.0Y_7_chef0;
1.0E_7_chef - 1.0E_7_chef >= 10.0 - 9999999.0Y_7_chef7;
1.0E_7_chef - 1.0E_8_chef >= 10.0 - 9999999.0Y_7_chef8;
1.0E_7_chef - 1.0E_10_chef >= 10.0 - 9999999.0Y_7_chef10;
1.0E_7_chef - 1.0E_12_chef >= 10.0 - 9999999.0Y_7_chef12;
1.0E_7_chef - 1.0E_13_chef >= 10.0 - 9999999.0Y_7_chef13;
1.0E_8_chef - 1.0E_0_chef >= 10.0 - 9999999.0Y_8_chef0;
1.0E_8_chef - 1.0E_7_chef >= 10.0 - 9999999.0Y_8_chef7;
1.0E_8_chef - 1.0E_8_chef >= 10.0 - 9999999.0Y_8_chef8;
1.0E_8_chef - 1.0E_10_chef >= 10.0 - 9999999.0Y_8_chef10;
1.0E_8_chef - 1.0E_12_chef >= 10.0 - 9999999.0Y_8_chef12;
1.0E_8_chef - 1.0E_13_chef >= 10.0 - 9999999.0Y_8_chef13;
1.0E_9_kettle - 1.0E_9_kettle >= 120.0 - 9999999.0Y_9_kettle9;
1.0E_10_chef - 1.0E_0_chef >= 7.0 - 9999999.0Y_10_chef0;
1.0E_10_chef - 1.0E_7_chef >= 7.0 - 9999999.0Y_10_chef7;
1.0E_10_chef - 1.0E_8_chef >= 7.0 - 9999999.0Y_10_chef8;
1.0E_10_chef - 1.0E_10_chef >= 7.0 - 9999999.0Y_10_chef10;
1.0E_10_chef - 1.0E_12_chef >= 7.0 - 9999999.0Y_10_chef12;
1.0E_10_chef - 1.0E_13_chef >= 7.0 - 9999999.0Y_10_chef13;
1.0E_11_worktop - 1.0E_11_worktop >= 300.0 - 9999999.0Y_11_worktop11;
1.0E_12_chef - 1.0E_0_chef >= 5.0 - 9999999.0Y_12_chef0;
1.0E_12_chef - 1.0E_7_chef >= 5.0 - 9999999.0Y_12_chef7;
1.0E_12_chef - 1.0E_8_chef >= 5.0 - 9999999.0Y_12_chef8;
1.0E_12_chef - 1.0E_10_chef >= 5.0 - 9999999.0Y_12_chef10;
1.0E_12_chef - 1.0E_12_chef >= 5.0 - 9999999.0Y_12_chef12;
1.0E_12_chef - 1.0E_13_chef >= 5.0 - 9999999.0Y_12_chef13;
1.0E_13_chef - 1.0E_0_chef >= 7.0 - 9999999.0Y_13_chef0;
1.0E_13_chef - 1.0E_7_chef >= 7.0 - 9999999.0Y_13_chef7;
1.0E_13_chef - 1.0E_8_chef >= 7.0 - 9999999.0Y_13_chef8;
1.0E_13_chef - 1.0E_10_chef >= 7.0 - 9999999.0Y_13_chef10;
1.0E_13_chef - 1.0E_12_chef >= 7.0 - 9999999.0Y_13_chef12;
1.0E_13_chef - 1.0E_13_chef >= 7.0 - 9999999.0Y_13_chef13;
1.0E_0_chef - 1.0E_0_chef >= 10.0 - 9999999.0 + 9999999.0Y_0_chef0;
1.0E_7_chef - 1.0E_0_chef >= 10.0 - 9999999.0 + 9999999.0Y_0_chef7;
1.0E_8_chef - 1.0E_0_chef >= 10.0 - 9999999.0 + 9999999.0Y_0_chef8;
1.0E_10_chef - 1.0E_0_chef >= 7.0 - 9999999.0 + 9999999.0Y_0_chef10;
1.0E_12_chef - 1.0E_0_chef >= 5.0 - 9999999.0 + 9999999.0Y_0_chef12;
1.0E_13_chef - 1.0E_0_chef >= 7.0 - 9999999.0 + 9999999.0Y_0_chef13;
1.0E_0_chef - 1.0E_7_chef >= 10.0 - 9999999.0 + 9999999.0Y_7_chef0;
1.0E_7_chef - 1.0E_7_chef >= 10.0 - 9999999.0 + 9999999.0Y_7_chef7;
1.0E_8_chef - 1.0E_7_chef >= 10.0 - 9999999.0 + 9999999.0Y_7_chef8;
1.0E_10_chef - 1.0E_7_chef >= 7.0 - 9999999.0 + 9999999.0Y_7_chef10;
1.0E_12_chef - 1.0E_7_chef >= 5.0 - 9999999.0 + 9999999.0Y_7_chef12;
1.0E_13_chef - 1.0E_7_chef >= 7.0 - 9999999.0 + 9999999.0Y_7_chef13;
1.0E_0_chef - 1.0E_8_chef >= 10.0 - 9999999.0 + 9999999.0Y_8_chef0;
1.0E_7_chef - 1.0E_8_chef >= 10.0 - 9999999.0 + 9999999.0Y_8_chef7;
1.0E_8_chef - 1.0E_8_chef >= 10.0 - 9999999.0 + 9999999.0Y_8_chef8;
1.0E_10_chef - 1.0E_8_chef >= 7.0 - 9999999.0 + 9999999.0Y_8_chef10;
1.0E_12_chef - 1.0E_8_chef >= 5.0 - 9999999.0 + 9999999.0Y_8_chef12;
1.0E_13_chef - 1.0E_8_chef >= 7.0 - 9999999.0 + 9999999.0Y_8_chef13;
1.0E_9_kettle - 1.0E_9_kettle >= 120.0 - 9999999.0 + 9999999.0Y_9_kettle9;
1.0E_0_chef - 1.0E_10_chef >= 10.0 - 9999999.0 + 9999999.0Y_10_chef0;
1.0E_7_chef - 1.0E_10_chef >= 10.0 - 9999999.0 + 9999999.0Y_10_chef7;
1.0E_8_chef - 1.0E_10_chef >= 10.0 - 9999999.0 + 9999999.0Y_10_chef8;
1.0E_10_chef - 1.0E_10_chef >= 7.0 - 9999999.0 + 9999999.0Y_10_chef10;
1.0E_12_chef - 1.0E_10_chef >= 5.0 - 9999999.0 + 9999999.0Y_10_chef12;
1.0E_13_chef - 1.0E_10_chef >= 7.0 - 9999999.0 + 9999999.0Y_10_chef13;
1.0E_11_worktop - 1.0E_11_worktop >= 300.0 - 9999999.0 + 9999999.0Y_11_worktop11;
1.0E_0_chef - 1.0E_12_chef >= 10.0 - 9999999.0 + 9999999.0Y_12_chef0;
1.0E_7_chef - 1.0E_12_chef >= 10.0 - 9999999.0 + 9999999.0Y_12_chef7;
1.0E_8_chef - 1.0E_12_chef >= 10.0 - 9999999.0 + 9999999.0Y_12_chef8;
1.0E_10_chef - 1.0E_12_chef >= 7.0 - 9999999.0 + 9999999.0Y_12_chef10;
1.0E_12_chef - 1.0E_12_chef >= 5.0 - 9999999.0 + 9999999.0Y_12_chef12;
1.0E_13_chef - 1.0E_12_chef >= 7.0 - 9999999.0 + 9999999.0Y_12_chef13;
1.0E_0_chef - 1.0E_13_chef >= 10.0 - 9999999.0 + 9999999.0Y_13_chef0;
1.0E_7_chef - 1.0E_13_chef >= 10.0 - 9999999.0 + 9999999.0Y_13_chef7;
1.0E_8_chef - 1.0E_13_chef >= 10.0 - 9999999.0 + 9999999.0Y_13_chef8;
1.0E_10_chef - 1.0E_13_chef >= 7.0 - 9999999.0 + 9999999.0Y_13_chef10;
1.0E_12_chef - 1.0E_13_chef >= 5.0 - 9999999.0 + 9999999.0Y_13_chef12;
1.0E_13_chef - 1.0E_13_chef >= 7.0 - 9999999.0 + 9999999.0Y_13_chef13;
bin X_0_chef,X_7_chef,X_8_chef,X_9_kettle,X_10_chef,X_11_worktop,X_12_chef,X_13_chef;
bin Y_0_chef0,Y_0_chef7,Y_0_chef8,Y_0_chef10,Y_0_chef12,Y_0_chef13,Y_7_chef0,Y_7_chef7,Y_7_chef8,Y_7_chef10,Y_7_chef12,Y_7_chef13,Y_8_chef0,Y_8_chef7,Y_8_chef8,Y_8_chef10,Y_8_chef12,Y_8_chef13,Y_9_kettle9,Y_10_chef0,Y_10_chef7,Y_10_chef8,Y_10_chef10,Y_10_chef12,Y_10_chef13,Y_11_worktop11,Y_12_chef0,Y_12_chef7,Y_12_chef8,Y_12_chef10,Y_12_chef12,Y_12_chef13,Y_13_chef0,Y_13_chef7,Y_13_chef8,Y_13_chef10,Y_13_chef12,Y_13_chef13;